(set-logic QF_S)
(declare-fun var0 () String)
(assert (str.in.re var0 (re.++ (re.+ (re.union (str.to.re "00") (str.to.re "111"))) (re.++ (re.union (re.union (str.to.re "2") (str.to.re "333")) (re.union (str.to.re "44") (str.to.re "55"))) (re.++ (re.* (re.union (str.to.re "66") (str.to.re "7"))) (re.++ (re.union (re.* (str.to.re "88")) (re.* (str.to.re "99"))) (re.++ (re.union (re.+ (str.to.re "aaa")) (re.+ (str.to.re "bb"))) (re.++ (re.+ (re.+ (str.to.re "c"))) (re.++ (re.union (re.* (str.to.re "d")) (re.* (str.to.re "eee"))) (re.++ (re.union (re.union (str.to.re "ff") (str.to.re "g")) (re.union (str.to.re "h") (str.to.re "iii"))) (re.++ (re.union (re.+ (str.to.re "j")) (re.+ (str.to.re "k"))) (re.++ (re.* (re.+ (str.to.re "lll"))) (re.++ (re.union (re.union (str.to.re "m") (str.to.re "nn")) (re.union (str.to.re "oo") (str.to.re "pp"))) (re.++ (re.* (re.+ (str.to.re "qq"))) (re.++ (re.* (re.union (str.to.re "rr") (str.to.re "ss"))) (re.++ (re.* (re.union (str.to.re "t") (str.to.re "uuu"))) (re.++ (re.* (re.+ (str.to.re "v"))) (re.++ (re.+ (re.+ (str.to.re "ww"))) (re.++ (re.+ (re.union (str.to.re "xx") (str.to.re "yyy"))) (re.++ (re.+ (re.+ (str.to.re "z"))) (re.++ (re.+ (re.+ (str.to.re "AAA"))) (re.++ (re.union (re.* (str.to.re "B")) (re.* (str.to.re "C"))) (re.++ (re.+ (re.+ (str.to.re "D"))) (re.++ (re.* (re.union (str.to.re "EE") (str.to.re "F"))) (re.++ (re.union (re.union (str.to.re "GG") (str.to.re "HHH")) (re.union (str.to.re "II") (str.to.re "JJ"))) (re.++ (re.+ (re.union (str.to.re "KK") (str.to.re "L"))) (re.++ (re.* (re.+ (str.to.re "MM"))) (re.++ (re.* (re.* (str.to.re "NNN"))) (re.++ (re.+ (re.* (str.to.re "OOO"))) (re.++ (re.+ (re.+ (str.to.re "P"))) (re.++ (re.+ (re.+ (str.to.re "Q"))) (re.++ (re.* (re.+ (str.to.re "RR"))) (re.++ (re.+ (re.union (str.to.re "SS") (str.to.re "TTT"))) (re.++ (re.union (re.union (str.to.re "U") (str.to.re "V")) (re.union (str.to.re "WWW") (str.to.re "X"))) (re.++ (re.+ (re.union (str.to.re "YYY") (str.to.re "Z"))) (re.++ (re.union (re.* (str.to.re "!!!")) (re.* (str.to.re """"""""))) (re.++ (re.* (re.+ (str.to.re "#"))) (re.++ (re.* (re.* (str.to.re "$$"))) (re.++ (re.union (re.* (str.to.re "%%%")) (re.* (str.to.re "&"))) (re.++ (re.+ (re.union (str.to.re "'''") (str.to.re "("))) (re.++ (re.+ (re.union (str.to.re ")") (str.to.re "***"))) (re.++ (re.* (re.* (str.to.re "+++"))) (re.++ (re.* (re.+ (str.to.re ","))) (re.++ (re.union (re.union (str.to.re "--") (str.to.re ".")) (re.union (str.to.re "/") (str.to.re "::"))) (re.++ (re.union (re.+ (str.to.re ";;")) (re.+ (str.to.re "<<<"))) (re.++ (re.union (re.* (str.to.re "==")) (re.* (str.to.re ">"))) (re.++ (re.* (re.union (str.to.re "??") (str.to.re "@@@"))) (re.++ (re.* (re.* (str.to.re "["))) (re.++ (re.+ (re.union (str.to.re "\\\\") (str.to.re "]]]"))) (re.++ (re.* (re.+ (str.to.re "^^"))) (re.++ (re.+ (re.+ (str.to.re "__"))) (re.++ (re.* (re.+ (str.to.re "`"))) (re.++ (re.* (re.+ (str.to.re "{{{"))) (re.++ (re.+ (re.union (str.to.re "|") (str.to.re "}"))) (re.++ (re.* (re.* (str.to.re "~~"))) (re.++ (re.union (re.* (str.to.re "0")) (re.* (str.to.re "11"))) (re.++ (re.union (re.+ (str.to.re "2")) (re.+ (str.to.re "333"))) (re.++ (re.* (re.union (str.to.re "44") (str.to.re "555"))) (re.++ (re.+ (re.union (str.to.re "66") (str.to.re "7"))) (re.++ (re.+ (re.+ (str.to.re "888"))) (re.+ (re.union (str.to.re "99") (str.to.re "aaa")))))))))))))))))))))))))))))))))))))))))))))))))))))))))))))))
(check-sat)